100
504 803 667 1103 834 585 811 856 690 832 846 813 868 793 825 1002 860 615 540 797 616 660 707 866 647 746 1006 608 877 900 573 788 484 853 942 630 591 630 640 1169 932 1034 957 798 669 625 467 1051 552 717 654 388 559 555 1104 783 959 668 507 855 986 831 821 825 868 852 832 828 799 686 510 671 575 740 510 675 996 636 826 1022 1140 654 909 799 1162 653 814 625 599 476 767 954 906 904 649 873 565 853 1008 632 
11927 
42 41 523 215 819 551 69 193 582 375 367 478 162 898 550 553 298 577 493 183 260 224 852 394 958 282 402 604 164 308 218 61 273 772 191 117 276 877 415 873 902 465 320 870 244 781 86 622 665 155 680 101 665 227 597 354 597 79 162 998 849 136 112 751 735 884 71 449 266 420 797 945 746 46 44 545 882 72 383 714 987 183 731 301 718 91 109 567 708 507 983 808 766 615 554 282 995 946 651 298